NAME : portcgen-25-12
COMMENT : portcgen N=25, seed=12
TYPE : TSP
DIMENSION : 25
EDGE_WEIGHT_TYPE : EUC_2D
NODE_COORD_SECTION
1 100641 205532
2 2583 30963
3 -182041 -90356
4 130087 240552
5 -296072 -229675
6 -40749 107092
7 -13550 396633
8 278401 154378
9 156552 212596
10 111565 -10188
11 246649 -15813
12 301153 249371
13 121598 -198528
14 86723 -21484
15 -261392 282889
16 377375 553042
17 -306466 -182870
18 178377 -13428
19 -140639 -319791
20 58581 14903
21 410317 -70143
22 133221 -186654
23 -22122 -9276
24 81498 -1513
25 -89711 235304
